p cnf 159 625
56 59 145 0
70 76 98 107 0
66 69 80 85 0
46 87 91 134 0
37 43 112 115 0
33 97 99 0
78 121 0
83 104 106 0
63 73 92 0
25 125 0
53 55 58 0
67 102 0
44 45 0
36 42 117 136 0
34 154 0
28 29 31 64 0
27 79 150 0
24 26 41 57 0
47 50 74 86 0
71 108 110 0
65 81 0
96 111 0
39 113 116 0
35 119 0
32 100 120 0
89 101 122 0
124 126 0
49 61 75 127 0
72 109 129 130 0
131 158 0
68 82 132 0
88 133 0
38 40 114 118 137 0
93 139 0
51 140 0
-107 -145 0
-69 -145 0
-134 -145 0
-141 -145 0
-112 -145 0
-69 -107 0
-107 -134 0
-107 -141 0
-107 -112 0
-69 -134 0
-69 -141 0
-69 -112 0
-134 -141 0
-112 -134 0
-112 -141 0
-58 -77 0
-58 -102 0
-45 -58 0
-58 -142 0
-42 -58 0
-77 -102 0
-45 -77 0
-77 -142 0
-42 -77 0
-45 -102 0
-102 -142 0
-42 -102 0
-45 -142 0
-42 -45 0
-42 -142 0
-31 -154 0
-123 -154 0
-94 -154 0
-26 -154 0
-50 -154 0
-31 -123 0
-31 -94 0
-26 -31 0
-31 -50 0
-94 -123 0
-26 -123 0
-50 -123 0
-26 -94 0
-50 -94 0
-26 -50 0
-100 -119 0
-84 -119 0
-119 -143 0
-119 -124 0
-119 -127 0
-84 -100 0
-100 -143 0
-100 -124 0
-100 -127 0
-84 -143 0
-84 -124 0
-84 -127 0
-124 -143 0
-127 -143 0
-124 -127 0
-109 -144 0
-132 -144 0
-133 -144 0
-144 -147 0
-114 -144 0
-109 -132 0
-109 -133 0
-109 -147 0
-109 -114 0
-132 -133 0
-132 -147 0
-114 -132 0
-133 -147 0
-114 -133 0
-114 -147 0
-148 -149 0
-148 -151 0
-139 -148 0
-148 -153 0
-140 -148 0
-149 -151 0
-139 -149 0
-149 -153 0
-140 -149 0
-139 -151 0
-151 -153 0
-140 -151 0
-139 -153 0
-139 -140 0
-140 -153 0
-58 -145 0
-145 -154 0
-119 -145 0
-144 -145 0
-145 -148 0
-58 -154 0
-58 -119 0
-58 -144 0
-58 -148 0
-119 -154 0
-144 -154 0
-148 -154 0
-119 -144 0
-119 -148 0
-144 -148 0
-77 -107 0
-31 -107 0
-100 -107 0
-107 -109 0
-107 -149 0
-31 -77 0
-77 -100 0
-77 -109 0
-77 -149 0
-31 -100 0
-31 -109 0
-31 -149 0
-100 -109 0
-100 -149 0
-109 -149 0
-69 -102 0
-69 -123 0
-69 -84 0
-69 -132 0
-69 -151 0
-102 -123 0
-84 -102 0
-102 -132 0
-102 -151 0
-84 -123 0
-123 -132 0
-123 -151 0
-84 -132 0
-84 -151 0
-132 -151 0
-45 -134 0
-94 -134 0
-134 -143 0
-133 -134 0
-134 -139 0
-45 -94 0
-45 -143 0
-45 -133 0
-45 -139 0
-94 -143 0
-94 -133 0
-94 -139 0
-133 -143 0
-139 -143 0
-133 -139 0
-141 -142 0
-26 -141 0
-124 -141 0
-141 -147 0
-141 -153 0
-26 -142 0
-124 -142 0
-142 -147 0
-142 -153 0
-26 -124 0
-26 -147 0
-26 -153 0
-124 -147 0
-124 -153 0
-147 -153 0
-42 -112 0
-50 -112 0
-112 -127 0
-112 -114 0
-112 -140 0
-42 -50 0
-42 -127 0
-42 -114 0
-42 -140 0
-50 -127 0
-50 -114 0
-50 -140 0
-114 -127 0
-127 -140 0
-114 -140 0
-59 -76 0
-46 -59 0
-43 -59 0
-46 -76 0
-43 -76 0
-43 -46 0
-33 -52 0
-52 -92 0
-48 -52 0
-33 -92 0
-33 -48 0
-48 -92 0
-108 -146 0
-135 -146 0
-113 -146 0
-108 -135 0
-108 -113 0
-113 -135 0
-30 -155 0
-93 -155 0
-51 -155 0
-30 -93 0
-30 -51 0
-51 -93 0
-52 -59 0
-59 -146 0
-59 -155 0
-52 -146 0
-52 -155 0
-146 -155 0
-33 -76 0
-76 -108 0
-30 -76 0
-33 -108 0
-30 -33 0
-30 -108 0
-46 -92 0
-46 -135 0
-46 -93 0
-92 -135 0
-92 -93 0
-93 -135 0
-43 -48 0
-43 -113 0
-43 -51 0
-48 -113 0
-48 -51 0
-51 -113 0
-83 -99 0
-99 -128 0
-83 -128 0
-32 -156 0
-32 -49 0
-49 -156 0
-68 -72 0
-40 -72 0
-40 -68 0
-32 -99 0
-72 -99 0
-32 -72 0
-83 -156 0
-68 -83 0
-68 -156 0
-49 -128 0
-40 -128 0
-40 -49 0
-157 -159 0
-23 -157 0
-136 -157 0
-23 -159 0
-136 -159 0
-23 -136 0
-29 -79 0
-29 -41 0
-29 -47 0
-41 -79 0
-47 -79 0
-41 -47 0
-22 -71 0
-71 -111 0
-39 -71 0
-22 -111 0
-22 -39 0
-39 -111 0
-129 -131 0
-21 -129 0
-38 -129 0
-21 -131 0
-38 -131 0
-21 -38 0
-29 -157 0
-71 -157 0
-129 -157 0
-29 -71 0
-29 -129 0
-71 -129 0
-79 -159 0
-22 -159 0
-131 -159 0
-22 -79 0
-79 -131 0
-22 -131 0
-23 -41 0
-23 -111 0
-21 -23 0
-41 -111 0
-21 -41 0
-21 -111 0
-47 -136 0
-39 -136 0
-38 -136 0
-39 -47 0
-38 -47 0
-38 -39 0
-20 -78 0
-20 -73 0
-19 -20 0
-73 -78 0
-19 -78 0
-19 -73 0
-18 -55 0
-44 -55 0
-55 -117 0
-18 -44 0
-18 -117 0
-44 -117 0
-35 -101 0
-17 -35 0
-35 -75 0
-17 -101 0
-75 -101 0
-17 -75 0
-16 -158 0
-16 -88 0
-16 -137 0
-88 -158 0
-137 -158 0
-88 -137 0
-20 -55 0
-20 -35 0
-16 -20 0
-35 -55 0
-16 -55 0
-16 -35 0
-18 -78 0
-78 -101 0
-78 -158 0
-18 -101 0
-18 -158 0
-101 -158 0
-44 -73 0
-17 -73 0
-73 -88 0
-17 -44 0
-44 -88 0
-17 -88 0
-19 -117 0
-19 -75 0
-19 -137 0
-75 -117 0
-117 -137 0
-75 -137 0
-56 -70 0
-56 -80 0
-56 -95 0
-56 -115 0
-70 -80 0
-70 -95 0
-70 -115 0
-80 -95 0
-80 -115 0
-95 -115 0
-15 -97 0
-15 -104 0
-15 -125 0
-15 -60 0
-97 -104 0
-97 -125 0
-60 -97 0
-104 -125 0
-60 -104 0
-60 -125 0
-14 -53 0
-53 -67 0
-13 -53 0
-36 -53 0
-14 -67 0
-13 -14 0
-14 -36 0
-13 -67 0
-36 -67 0
-13 -36 0
-28 -34 0
-12 -34 0
-24 -34 0
-34 -74 0
-12 -28 0
-24 -28 0
-28 -74 0
-12 -24 0
-12 -74 0
-24 -74 0
-54 -130 0
-54 -82 0
-11 -54 0
-54 -118 0
-82 -130 0
-11 -130 0
-118 -130 0
-11 -82 0
-82 -118 0
-11 -118 0
-15 -56 0
-53 -56 0
-34 -56 0
-54 -56 0
-15 -53 0
-15 -34 0
-15 -54 0
-34 -53 0
-53 -54 0
-34 -54 0
-70 -97 0
-14 -70 0
-28 -70 0
-70 -130 0
-14 -97 0
-28 -97 0
-97 -130 0
-14 -28 0
-14 -130 0
-28 -130 0
-80 -104 0
-67 -80 0
-12 -80 0
-80 -82 0
-67 -104 0
-12 -104 0
-82 -104 0
-12 -67 0
-67 -82 0
-12 -82 0
-95 -125 0
-13 -95 0
-24 -95 0
-11 -95 0
-13 -125 0
-24 -125 0
-11 -125 0
-13 -24 0
-11 -13 0
-11 -24 0
-60 -115 0
-36 -115 0
-74 -115 0
-115 -118 0
-36 -60 0
-60 -74 0
-60 -118 0
-36 -74 0
-36 -118 0
-74 -118 0
-10 -66 0
-10 -91 0
-8 -10 0
-10 -37 0
-66 -91 0
-8 -66 0
-37 -66 0
-8 -91 0
-37 -91 0
-8 -37 0
-106 -121 0
-63 -121 0
-25 -121 0
-7 -121 0
-63 -106 0
-25 -106 0
-7 -106 0
-25 -63 0
-7 -63 0
-7 -25 0
-6 -27 0
-5 -27 0
-27 -57 0
-27 -86 0
-5 -6 0
-6 -57 0
-6 -86 0
-5 -57 0
-5 -86 0
-57 -86 0
-4 -81 0
-3 -4 0
-4 -96 0
-4 -116 0
-3 -81 0
-81 -96 0
-81 -116 0
-3 -96 0
-3 -116 0
-96 -116 0
-89 -103 0
-2 -89 0
-89 -126 0
-61 -89 0
-2 -103 0
-103 -126 0
-61 -103 0
-2 -126 0
-2 -61 0
-61 -126 0
-10 -121 0
-10 -27 0
-4 -10 0
-10 -89 0
-27 -121 0
-4 -121 0
-89 -121 0
-4 -27 0
-27 -89 0
-4 -89 0
-66 -106 0
-6 -66 0
-66 -81 0
-66 -103 0
-6 -106 0
-81 -106 0
-103 -106 0
-6 -81 0
-6 -103 0
-81 -103 0
-63 -91 0
-5 -91 0
-3 -91 0
-2 -91 0
-5 -63 0
-3 -63 0
-2 -63 0
-3 -5 0
-2 -5 0
-2 -3 0
-8 -25 0
-8 -57 0
-8 -96 0
-8 -126 0
-25 -57 0
-25 -96 0
-25 -126 0
-57 -96 0
-57 -126 0
-96 -126 0
-7 -37 0
-37 -86 0
-37 -116 0
-37 -61 0
-7 -86 0
-7 -116 0
-7 -61 0
-86 -116 0
-61 -86 0
-61 -116 0
-1 -98 0
-85 -98 0
-87 -98 0
-1 -85 0
-1 -87 0
-85 -87 0
-64 -150 0
-64 -138 0
-64 -152 0
-138 -150 0
-150 -152 0
-138 -152 0
-9 -110 0
-65 -110 0
-90 -110 0
-9 -65 0
-9 -90 0
-65 -90 0
-120 -122 0
-105 -120 0
-62 -120 0
-105 -122 0
-62 -122 0
-62 -105 0
-64 -98 0
-98 -110 0
-98 -120 0
-64 -110 0
-64 -120 0
-110 -120 0
-1 -150 0
-1 -9 0
-1 -122 0
-9 -150 0
-122 -150 0
-9 -122 0
-85 -138 0
-65 -85 0
-85 -105 0
-65 -138 0
-105 -138 0
-65 -105 0
-87 -152 0
-87 -90 0
-62 -87 0
-90 -152 0
-62 -152 0
-62 -90 0
